
%FILE DATA:	Soccer Computational Problem for MiniZinc Models	%
%AUTHOR:	Jack Wall	%
%CONTACT:  	116397063@umail.ucc.ie			%
%LAST UPDATE:	03/11/2020, 17:01:55						%
%DESCRIPTION: 	117 games played with 39 games left				%


n=13; %number of teams

%Games to play
games=[|1,10|13,4|12,9|6,3|5,12|9,11|1,8|9,5|8,2|11,10|4,1|10,1|7,11|9,3|3,5|5,6|9,7|6,5|10,12|12,2|5,11|7,5|8,3|5,10|2,5|4,2|4,11|5,9|12,3|13,1|11,9|11,1|3,1|9,13|6,7|2,9|1,11|10,8|13,8|];

%Initial points
iPoints=[17,29,27,25,19,29,25,27,19,23,15,31,23];

%POSITION CONSTRAINTS
% [|teamID, operator, position|...]
% operators index:
%  1 for =  operator
%  2 for >  operator
%  3 for >= operator
%  4 for <  operator
%  5 for <= operator
positionConstraints=[|2,1,1|12,1,2|3,1,3|9,5,4|];